c colouring generated by benchmark framework
p edge 500 58862
v 1 42
v 2 3
v 3 107
v 4 44
v 5 29
v 6 74
v 7 28
v 8 15
v 9 20
v 10 49
v 11 54
v 12 8
v 13 34
v 14 105
v 15 65
v 16 22
v 17 13
v 18 105
v 19 97
v 20 99
v 21 5
v 22 103
v 23 2
v 24 69
v 25 110
v 26 58
v 27 6
v 28 76
v 29 67
v 30 22
v 31 20
v 32 84
v 33 17
v 34 8
v 35 85
v 36 99
v 37 94
v 38 11
v 39 49
v 40 13
v 41 110
v 42 20
v 43 63
v 44 83
v 45 25
v 46 103
v 47 15
v 48 46
v 49 37
v 50 37
v 51 84
v 52 2
v 53 43
v 54 4
v 55 6
v 56 100
v 57 43
v 58 81
v 59 63
v 60 116
v 61 61
v 62 38
v 63 102
v 64 102
v 65 90
v 66 74
v 67 67
v 68 86
v 69 82
v 70 104
v 71 45
v 72 94
v 73 40
v 74 75
v 75 58
v 76 73
v 77 26
v 78 5
v 79 25
v 80 93
v 81 109
v 82 30
v 83 1
v 84 5
v 85 86
v 86 35
v 87 87
v 88 7
v 89 22
v 90 7
v 91 38
v 92 96
v 93 35
v 94 106
v 95 39
v 96 40
v 97 75
v 98 31
v 99 33
v 100 8
v 101 117
v 102 107
v 103 63
v 104 3
v 105 27
v 106 4
v 107 91
v 108 3
v 109 70
v 110 78
v 111 28
v 112 61
v 113 37
v 114 67
v 115 9
v 116 107
v 117 126
v 118 52
v 119 23
v 120 56
v 121 2
v 122 43
v 123 47
v 124 18
v 125 108
v 126 56
v 127 12
v 128 86
v 129 10
v 130 52
v 131 110
v 132 112
v 133 112
v 134 81
v 135 32
v 136 55
v 137 32
v 138 5
v 139 14
v 140 45
v 141 47
v 142 38
v 143 53
v 144 33
v 145 85
v 146 66
v 147 53
v 148 16
v 149 118
v 150 46
v 151 101
v 152 5
v 153 53
v 154 23
v 155 18
v 156 87
v 157 79
v 158 119
v 159 80
v 160 61
v 161 45
v 162 57
v 163 91
v 164 8
v 165 119
v 166 34
v 167 17
v 168 64
v 169 0
v 170 55
v 171 59
v 172 114
v 173 54
v 174 113
v 175 0
v 176 106
v 177 120
v 178 59
v 179 83
v 180 30
v 181 58
v 182 30
v 183 9
v 184 79
v 185 47
v 186 26
v 187 19
v 188 60
v 189 89
v 190 16
v 191 111
v 192 42
v 193 62
v 194 102
v 195 125
v 196 100
v 197 13
v 198 104
v 199 95
v 200 90
v 201 19
v 202 57
v 203 17
v 204 3
v 205 54
v 206 34
v 207 50
v 208 121
v 209 51
v 210 54
v 211 64
v 212 72
v 213 109
v 214 11
v 215 25
v 216 45
v 217 63
v 218 48
v 219 33
v 220 121
v 221 0
v 222 55
v 223 78
v 224 10
v 225 13
v 226 4
v 227 26
v 228 21
v 229 109
v 230 65
v 231 10
v 232 115
v 233 7
v 234 68
v 235 22
v 236 40
v 237 118
v 238 0
v 239 1
v 240 54
v 241 16
v 242 26
v 243 10
v 244 36
v 245 62
v 246 70
v 247 82
v 248 78
v 249 60
v 250 87
v 251 11
v 252 12
v 253 91
v 254 41
v 255 72
v 256 93
v 257 103
v 258 110
v 259 2
v 260 61
v 261 26
v 262 24
v 263 36
v 264 28
v 265 105
v 266 50
v 267 28
v 268 94
v 269 113
v 270 1
v 271 12
v 272 15
v 273 27
v 274 34
v 275 115
v 276 14
v 277 118
v 278 126
v 279 31
v 280 21
v 281 88
v 282 71
v 283 10
v 284 12
v 285 80
v 286 114
v 287 76
v 288 69
v 289 79
v 290 74
v 291 1
v 292 19
v 293 39
v 294 100
v 295 13
v 296 12
v 297 73
v 298 74
v 299 71
v 300 20
v 301 98
v 302 68
v 303 122
v 304 52
v 305 106
v 306 92
v 307 117
v 308 35
v 309 11
v 310 18
v 311 86
v 312 70
v 313 77
v 314 80
v 315 102
v 316 32
v 317 37
v 318 90
v 319 124
v 320 18
v 321 49
v 322 6
v 323 69
v 324 7
v 325 116
v 326 6
v 327 84
v 328 106
v 329 6
v 330 80
v 331 55
v 332 88
v 333 99
v 334 77
v 335 51
v 336 79
v 337 76
v 338 59
v 339 4
v 340 114
v 341 44
v 342 95
v 343 96
v 344 24
v 345 101
v 346 1
v 347 29
v 348 56
v 349 72
v 350 124
v 351 113
v 352 39
v 353 38
v 354 95
v 355 84
v 356 11
v 357 116
v 358 69
v 359 32
v 360 89
v 361 99
v 362 62
v 363 101
v 364 111
v 365 34
v 366 48
v 367 73
v 368 62
v 369 76
v 370 44
v 371 66
v 372 90
v 373 81
v 374 18
v 375 9
v 376 77
v 377 93
v 378 46
v 379 1
v 380 96
v 381 27
v 382 57
v 383 58
v 384 27
v 385 89
v 386 8
v 387 123
v 388 101
v 389 17
v 390 123
v 391 103
v 392 88
v 393 33
v 394 117
v 395 4
v 396 52
v 397 48
v 398 88
v 399 49
v 400 48
v 401 14
v 402 104
v 403 78
v 404 72
v 405 124
v 406 75
v 407 16
v 408 41
v 409 20
v 410 7
v 411 14
v 412 50
v 413 15
v 414 22
v 415 66
v 416 60
v 417 113
v 418 82
v 419 42
v 420 120
v 421 15
v 422 77
v 423 89
v 424 2
v 425 36
v 426 2
v 427 29
v 428 112
v 429 55
v 430 24
v 431 121
v 432 46
v 433 92
v 434 83
v 435 31
v 436 19
v 437 16
v 438 93
v 439 41
v 440 111
v 441 13
v 442 81
v 443 82
v 444 108
v 445 66
v 446 68
v 447 25
v 448 105
v 449 17
v 450 31
v 451 125
v 452 122
v 453 67
v 454 19
v 455 100
v 456 97
v 457 92
v 458 85
v 459 95
v 460 91
v 461 73
v 462 23
v 463 41
v 464 6
v 465 108
v 466 71
v 467 25
v 468 22
v 469 86
v 470 64
v 471 53
v 472 81
v 473 39
v 474 88
v 475 83
v 476 27
v 477 36
v 478 21
v 479 97
v 480 23
v 481 70
v 482 4
v 483 47
v 484 102
v 485 43
v 486 29
v 487 64
v 488 44
v 489 65
v 490 98
v 491 98
v 492 98
v 493 68
v 494 51
v 495 121
v 496 20
v 497 3
v 498 109
v 499 30
v 500 71
